Route #1: 1 1 12 16 26 14 13 31 21 1 
Route #2: 1 30 27 24 6 23 3 7 1 
Route #3: 1 19 17 2 8 18 9 22 29 5 1 
Route #4: 1 20 25 10 15 4 28 1 
Route #5: 1 11 1 

Cost 1110.71
Time 9.1911


 * Another infos *

 Iterations: 32 Time: 9.1911 sec - 0.1532 min - 0.0026 horas
0.0000 h 0.1532 min
Problem dimension: 32
